271 272 273 274 275 292 291 290 289 288 276 277 278 279 282 281 280 287 286 285 284 283 334 335 336 337 338 339 333 332 331 330 340 341 343 344 345 346 364 363 362 347 348 349 350 351 352 413 414 415 416 417 419 418 410 411 412 356 355 353 354 357 358 359 361 360 401 402 403 400 404 405 406 408 407 399 397 398 370 369 368 365 342 366 367 327 328 329 326 325 324 323 322 321 320 319 317 318 305 306 304 303 307 505 308 309 310 504 503 502 498 501 500 499 452 453 439 443 444 445 442 446 447 448 449 440 441 450 451 311 312 313 316 314 315 377 378 380 379 376 375 374 373 372 371 396 395 394 393 391 392 381 390 389 388 387 386 385 409 384 383 382 425 424 423 422 421 420 426 427 428 429 431 430 432 433 434 435 436 437 438 454 455 456 457 458 459 460 461 462 463 464 465 496 497 495 470 469 468 467 466 571 572 573 0 1 2 3 4 5 6 7 8 9 10 11 22 23 12 13 14 15 16 17 18 19 20 568 569 570 474 473 472 471 494 518 519 520 517 522 521 523 526 528 529 530 531 532 533 489 488 534 230 229 186 185 183 184 181 180 179 182 188 187 178 177 176 540 538 539 537 536 535 487 486 490 491 492 525 524 493 485 484 483 482 481 480 479 478 477 476 475 567 27 26 21 24 25 28 29 31 30 32 36 37 38 35 33 34 558 559 550 560 561 562 563 565 566 564 549 548 545 546 547 544 543 541 542 107 109 108 173 174 175 172 170 171 169 168 162 160 161 113 112 114 111 110 115 116 117 122 123 71 121 120 119 118 106 105 104 103 102 551 101 100 99 98 97 96 95 94 93 92 90 89 88 77 78 62 79 80 81 87 86 85 91 46 45 555 556 554 553 552 557 41 40 39 42 43 44 47 48 49 50 52 51 84 82 83 53 54 55 56 57 58 59 60 61 63 64 76 75 74 73 72 65 66 67 68 70 69 124 125 126 127 128 129 130 131 132 133 134 135 136 137 138 139 140 141 151 150 149 152 148 147 142 143 144 146 145 158 157 153 156 159 155 154 163 167 166 164 165 201 200 199 198 202 204 203 208 207 206 205 197 196 195 194 209 210 211 212 213 214 215 216 217 223 224 222 221 220 218 219 193 192 191 190 226 225 189 227 228 231 233 232 234 235 236 237 509 510 511 512 527 513 514 515 516 506 507 508 302 301 240 239 238 246 247 245 244 243 242 241 300 257 256 248 249 250 251 252 254 253 255 261 263 264 266 265 262 260 259 258 299 298 297 267 296 295 294 293 270 269 268